benchmarks_vrp/CMT1/min_c/CMT1_4.vrp
NAME: CMT1_4
TYPE: CVRP
COMMENT: 524.61 - Cluster Nr.4
DIMENSION: 11
CAPACITY: 160
EDGE_WEIGHT_TYPE: EUC_2D
NODE_COORD_TYPE: TWOD_COORDS
NODE_COORD_SECTION: 
10 5 64
3 31 62
11 21 47
8 8 52
9 37 69
2 16 57
6 30 48
7 25 55
5 17 63
1 30 40
4 27 68
DEPOT_SECTION: 
1
-1
DEMAND_SECTION: 
9 11
1 0
5 19
7 17
4 7
6 15
10 11
8 10
3 23
2 16
11 15
EOF
