benchmarks_vrp/CMT1/min_c/CMT1_4.tour
NAME: CMT1_4 solution
TYPE: TOUR
TOUR_SECTION:
1 6 7 3 9 4 5 10 8 2 11 -1
-1
EOF